c CNF file corresponding to a (partial) station packing problem.
p cnf 2034 229
1 2 3 4 5 6 7 8 9 10 11 12 13 14 0
-1 -2 0
-1 -3 0
-1 -4 0
-1 -5 0
-1 -6 0
-1 -7 0
-1 -8 0
-1 -9 0
-1 -10 0
-1 -11 0
-1 -12 0
-1 -13 0
-1 -14 0
-2 -3 0
-2 -4 0
-2 -5 0
-2 -6 0
-2 -7 0
-2 -8 0
-2 -9 0
-2 -10 0
-2 -11 0
-2 -12 0
-2 -13 0
-2 -14 0
-3 -4 0
-3 -5 0
-3 -6 0
-3 -7 0
-3 -8 0
-3 -9 0
-3 -10 0
-3 -11 0
-3 -12 0
-3 -13 0
-3 -14 0
-4 -5 0
-4 -6 0
-4 -7 0
-4 -8 0
-4 -9 0
-4 -10 0
-4 -11 0
-4 -12 0
-4 -13 0
-4 -14 0
-5 -6 0
-5 -7 0
-5 -8 0
-5 -9 0
-5 -10 0
-5 -11 0
-5 -12 0
-5 -13 0
-5 -14 0
-6 -7 0
-6 -8 0
-6 -9 0
-6 -10 0
-6 -11 0
-6 -12 0
-6 -13 0
-6 -14 0
-7 -8 0
-7 -9 0
-7 -10 0
-7 -11 0
-7 -12 0
-7 -13 0
-7 -14 0
-8 -9 0
-8 -10 0
-8 -11 0
-8 -12 0
-8 -13 0
-8 -14 0
-9 -10 0
-9 -11 0
-9 -12 0
-9 -13 0
-9 -14 0
-10 -11 0
-10 -12 0
-10 -13 0
-10 -14 0
-11 -12 0
-11 -13 0
-11 -14 0
-12 -13 0
-12 -14 0
-13 -14 0
2018 2019 2020 2021 2022 2023 2024 2025 2026 2027 2028 2029 2030 2031 2032 2033 2034 0
-2018 -2019 0
-2018 -2020 0
-2018 -2021 0
-2018 -2022 0
-2018 -2023 0
-2018 -2024 0
-2018 -2025 0
-2018 -2026 0
-2018 -2027 0
-2018 -2028 0
-2018 -2029 0
-2018 -2030 0
-2018 -2031 0
-2018 -2032 0
-2018 -2033 0
-2018 -2034 0
-2019 -2020 0
-2019 -2021 0
-2019 -2022 0
-2019 -2023 0
-2019 -2024 0
-2019 -2025 0
-2019 -2026 0
-2019 -2027 0
-2019 -2028 0
-2019 -2029 0
-2019 -2030 0
-2019 -2031 0
-2019 -2032 0
-2019 -2033 0
-2019 -2034 0
-2020 -2021 0
-2020 -2022 0
-2020 -2023 0
-2020 -2024 0
-2020 -2025 0
-2020 -2026 0
-2020 -2027 0
-2020 -2028 0
-2020 -2029 0
-2020 -2030 0
-2020 -2031 0
-2020 -2032 0
-2020 -2033 0
-2020 -2034 0
-2021 -2022 0
-2021 -2023 0
-2021 -2024 0
-2021 -2025 0
-2021 -2026 0
-2021 -2027 0
-2021 -2028 0
-2021 -2029 0
-2021 -2030 0
-2021 -2031 0
-2021 -2032 0
-2021 -2033 0
-2021 -2034 0
-2022 -2023 0
-2022 -2024 0
-2022 -2025 0
-2022 -2026 0
-2022 -2027 0
-2022 -2028 0
-2022 -2029 0
-2022 -2030 0
-2022 -2031 0
-2022 -2032 0
-2022 -2033 0
-2022 -2034 0
-2023 -2024 0
-2023 -2025 0
-2023 -2026 0
-2023 -2027 0
-2023 -2028 0
-2023 -2029 0
-2023 -2030 0
-2023 -2031 0
-2023 -2032 0
-2023 -2033 0
-2023 -2034 0
-2024 -2025 0
-2024 -2026 0
-2024 -2027 0
-2024 -2028 0
-2024 -2029 0
-2024 -2030 0
-2024 -2031 0
-2024 -2032 0
-2024 -2033 0
-2024 -2034 0
-2025 -2026 0
-2025 -2027 0
-2025 -2028 0
-2025 -2029 0
-2025 -2030 0
-2025 -2031 0
-2025 -2032 0
-2025 -2033 0
-2025 -2034 0
-2026 -2027 0
-2026 -2028 0
-2026 -2029 0
-2026 -2030 0
-2026 -2031 0
-2026 -2032 0
-2026 -2033 0
-2026 -2034 0
-2027 -2028 0
-2027 -2029 0
-2027 -2030 0
-2027 -2031 0
-2027 -2032 0
-2027 -2033 0
-2027 -2034 0
-2028 -2029 0
-2028 -2030 0
-2028 -2031 0
-2028 -2032 0
-2028 -2033 0
-2028 -2034 0
-2029 -2030 0
-2029 -2031 0
-2029 -2032 0
-2029 -2033 0
-2029 -2034 0
-2030 -2031 0
-2030 -2032 0
-2030 -2033 0
-2030 -2034 0
-2031 -2032 0
-2031 -2033 0
-2031 -2034 0
-2032 -2033 0
-2032 -2034 0
-2033 -2034 0
